Route #1: 1 8 17 19 30 20 33 14 35 1
Route #2: 1 37 3 15 27 25 40 26 29 1
Route #3: 1 22 7 38 42 10 12 11 31 1
Route #4: 1 6 18 41 4 34 16 44 21 1
Route #5: 1 13 2 36 28 32 1
Route #6: 1 24 39 1
Route #7: 1 9 23 43 5 1
cost 1056
